825154
2,84,88,7,52,90,43,54,71,35,98,67,62,12,79,36,47,0,69,73,31,59,30,61,92,48,9,55,68,74,5,40,17,76,29,95,20,19,8,32,56,46,94,24,77,50,78,28,39,93,25,16,11,18,42,23,58,89,70,33,45,27,10,22,97,53,64,51,21,72,83,91,38,13,6,65,3,80,85,44,86,75,37,87,49,96,96,34,82,14,15,81,57,60,66,26,1,63,4
